words_hard_train/5547.qaiger
aag 101 16 0 1 85
2
4
8
12
16
20
28
30
34
38
44
60
70
82
172
180
202
6 2 4
10 6 8
14 10 12
18 14 16
22 19 21
24 18 20
26 23 25
32 28 30
36 33 35
40 38 30
42 36 41
46 43 44
48 42 45
50 47 49
52 40 29
54 52 35
56 50 54
58 57 49
62 59 61
64 58 60
66 63 65
68 26 66
72 25 71
74 24 70
76 73 75
78 56 61
80 48 61
84 80 83
86 81 82
88 85 87
90 79 88
92 78 89
94 91 93
96 76 94
98 69 97
100 29 31
102 101 33
104 5 29
106 105 7
108 3 38
110 4 28
112 108 111
114 106 113
116 103 114
118 102 115
120 7 9
122 121 11
124 119 122
126 117 125
128 11 13
130 129 15
132 32 34
134 133 37
136 131 135
138 127 137
140 130 134
142 139 141
144 51 55
146 145 57
148 15 17
150 149 19
152 147 151
154 143 153
156 146 150
158 155 157
160 27 67
162 159 161
164 98 163
166 77 95
168 165 167
170 168 92
174 87 173
176 86 172
178 175 177
182 74 181
184 75 180
186 183 185
188 179 186
190 170 189
192 178 187
194 193 171
196 191 195
198 169 93
200 198 189
202 197 201
i0 1 x1[0]
i1 1 x1[1]
i2 1 x1[2]
i3 1 x1[3]
i4 1 x1[4]
i5 1 x1[5]
i6 2 y2[1]
i7 2 y2[2]
i8 2 y2[3]
i9 2 y2[0]
i10 2 y2[4]
i11 2 y2[5]
i12 1 x1[6]
i13 2 y2[6]
i14 2 y2[7]
i15 1 x1[7]
o0 bv[0]
c
simplified
  <=
    add
      invert
        -188
      2 y2
    add
      1
      1 x1
