words_hard_train/5547.qaiger.qdimacs
p cnf 101 256
a 1 2 35 4 6 8 10 90 0
e 3 5 7 9 11 12 13 14 15 16 17 18 19 20 21 22 23 24 25 26 27 28 29 30 31 32 33 34 36 37 38 39 40 41 42 43 44 45 46 47 48 49 50 51 52 53 54 55 56 57 58 59 60 61 62 63 64 65 66 67 68 69 70 71 72 73 74 75 76 77 78 79 80 81 82 83 84 85 86 87 88 89 91 92 93 94 95 96 97 98 99 100 101 0
-1 -2 3 0
1 -3 0
2 -3 0
-3 -4 5 0
3 -5 0
4 -5 0
-5 -6 7 0
5 -7 0
6 -7 0
-7 -8 9 0
7 -9 0
8 -9 0
9 10 11 0
-9 -11 0
-10 -11 0
-9 -10 12 0
9 -12 0
10 -12 0
11 12 13 0
-11 -13 0
-12 -13 0
-14 -15 16 0
14 -16 0
15 -16 0
16 17 18 0
-16 -18 0
-17 -18 0
-19 -15 20 0
19 -20 0
15 -20 0
-18 20 21 0
18 -21 0
-20 -21 0
21 -22 23 0
-21 -23 0
22 -23 0
-21 22 24 0
21 -24 0
-22 -24 0
23 24 25 0
-23 -25 0
-24 -25 0
-20 14 26 0
20 -26 0
-14 -26 0
-26 17 27 0
26 -27 0
-17 -27 0
-25 -27 28 0
25 -28 0
27 -28 0
28 24 29 0
-28 -29 0
-24 -29 0
29 30 31 0
-29 -31 0
-30 -31 0
-29 -30 32 0
29 -32 0
30 -32 0
31 32 33 0
-31 -33 0
-32 -33 0
-13 -33 34 0
13 -34 0
33 -34 0
12 35 36 0
-12 -36 0
-35 -36 0
-12 -35 37 0
12 -37 0
35 -37 0
36 37 38 0
-36 -38 0
-37 -38 0
-28 30 39 0
28 -39 0
-30 -39 0
-24 30 40 0
24 -40 0
-30 -40 0
-40 41 42 0
40 -42 0
-41 -42 0
40 -41 43 0
-40 -43 0
41 -43 0
42 43 44 0
-42 -44 0
-43 -44 0
39 -44 45 0
-39 -45 0
44 -45 0
-39 44 46 0
39 -46 0
-44 -46 0
45 46 47 0
-45 -47 0
-46 -47 0
-38 -47 48 0
38 -48 0
47 -48 0
34 48 49 0
-34 -49 0
-48 -49 0
14 15 50 0
-14 -50 0
-15 -50 0
50 16 51 0
-50 -51 0
-16 -51 0
2 14 52 0
-2 -52 0
-14 -52 0
52 3 53 0
-52 -53 0
-3 -53 0
1 -19 54 0
-1 -54 0
19 -54 0
-2 -14 55 0
2 -55 0
14 -55 0
-54 55 56 0
54 -56 0
-55 -56 0
-53 56 57 0
53 -57 0
-56 -57 0
51 -57 58 0
-51 -58 0
57 -58 0
-51 57 59 0
51 -59 0
-57 -59 0
3 4 60 0
-3 -60 0
-4 -60 0
60 5 61 0
-60 -61 0
-5 -61 0
59 -61 62 0
-59 -62 0
61 -62 0
58 62 63 0
-58 -63 0
-62 -63 0
5 6 64 0
-5 -64 0
-6 -64 0
64 7 65 0
-64 -65 0
-7 -65 0
-16 -17 66 0
16 -66 0
17 -66 0
66 18 67 0
-66 -67 0
-18 -67 0
65 67 68 0
-65 -68 0
-67 -68 0
63 68 69 0
-63 -69 0
-68 -69 0
-65 -67 70 0
65 -70 0
67 -70 0
69 70 71 0
-69 -71 0
-70 -71 0
25 27 72 0
-25 -72 0
-27 -72 0
72 28 73 0
-72 -73 0
-28 -73 0
7 8 74 0
-7 -74 0
-8 -74 0
74 9 75 0
-74 -75 0
-9 -75 0
73 75 76 0
-73 -76 0
-75 -76 0
71 76 77 0
-71 -77 0
-76 -77 0
-73 -75 78 0
73 -78 0
75 -78 0
77 78 79 0
-77 -79 0
-78 -79 0
13 33 80 0
-13 -80 0
-33 -80 0
79 80 81 0
-79 -81 0
-80 -81 0
-49 81 82 0
49 -82 0
-81 -82 0
38 47 83 0
-38 -83 0
-47 -83 0
82 83 84 0
-82 -84 0
-83 -84 0
-84 -46 85 0
84 -85 0
46 -85 0
43 86 87 0
-43 -87 0
-86 -87 0
-43 -86 88 0
43 -88 0
86 -88 0
87 88 89 0
-87 -89 0
-88 -89 0
-37 90 91 0
37 -91 0
-90 -91 0
37 -90 92 0
-37 -92 0
90 -92 0
91 92 93 0
-91 -93 0
-92 -93 0
89 -93 94 0
-89 -94 0
93 -94 0
-85 94 95 0
85 -95 0
-94 -95 0
-89 93 96 0
89 -96 0
-93 -96 0
96 85 97 0
-96 -97 0
-85 -97 0
95 97 98 0
-95 -98 0
-97 -98 0
84 46 99 0
-84 -99 0
-46 -99 0
-99 94 100 0
99 -100 0
-94 -100 0
98 100 101 0
-98 -101 0
-100 -101 0
101 0
